N = 48;
M = 114;
Edge_Start = [1, 1, 2, 3, 3, 4, 5, 5, 6, 7, 8, 10, 11, 12, 13, 13, 14, 15, 16, 17, 18, 19, 20, 20, 21, 22, 22, 23, 24, 24, 25, 26, 26, 27, 28, 28, 30, 31, 31, 32, 33, 33, 34, 35, 35, 36, 37, 37, 38, 40, 41, 42, 43, 44, 45, 46, 47, 2, 10, 3, 4, 12, 5, 6, 14, 7, 8, 9, 11, 12, 13, 14, 23, 15, 16, 17, 27, 19, 29, 21, 30, 22, 23, 32, 24, 25, 34, 26, 27, 36, 28, 29, 38, 31, 32, 40, 33, 34, 42, 35, 36, 44, 37, 38, 46, 39, 41, 42, 43, 44, 45, 46, 47, 48];
Edge_End = [2, 10, 3, 4, 12, 5, 6, 14, 7, 8, 9, 11, 12, 13, 14, 23, 15, 16, 17, 27, 19, 29, 21, 30, 22, 23, 32, 24, 25, 34, 26, 27, 36, 28, 29, 38, 31, 32, 40, 33, 34, 42, 35, 36, 44, 37, 38, 46, 39, 41, 42, 43, 44, 45, 46, 47, 48, 1, 1, 2, 3, 3, 4, 5, 5, 6, 7, 8, 10, 11, 12, 13, 13, 14, 15, 16, 17, 18, 19, 20, 20, 21, 22, 22, 23, 24, 24, 25, 26, 26, 27, 28, 28, 30, 31, 31, 32, 33, 33, 34, 35, 35, 36, 37, 37, 38, 40, 41, 42, 43, 44, 45, 46, 47];
L = [1, 1, 1, 1, 1, 1, 1, 1, 1, 1, 1, 1, 1, 1, 1, 1, 1, 1, 1, 1, 1, 1, 1, 1, 1, 1, 1, 1, 1, 1, 1, 1, 1, 1, 1, 1, 1, 1, 1, 1, 1, 1, 1, 1, 1, 1, 1, 1, 1, 1, 1, 1, 1, 1, 1, 1, 1, 1, 1, 1, 1, 1, 1, 1, 1, 1, 1, 1, 1, 1, 1, 1, 1, 1, 1, 1, 1, 1, 1, 1, 1, 1, 1, 1, 1, 1, 1, 1, 1, 1, 1, 1, 1, 1, 1, 1, 1, 1, 1, 1, 1, 1, 1, 1, 1, 1, 1, 1, 1, 1, 1, 1, 1, 1];
T = [1, 1, 1, 1, 1, 1, 1, 1, 1, 1, 1, 1, 1, 1, 1, 1, 1, 1, 1, 1, 1, 1, 1, 1, 1, 1, 1, 1, 1, 1, 1, 1, 1, 1, 1, 1, 1, 1, 1, 1, 1, 1, 1, 1, 1, 1, 1, 1, 1, 1, 1, 1, 1, 1, 1, 1, 1, 1, 1, 1, 1, 1, 1, 1, 1, 1, 1, 1, 1, 1, 1, 1, 1, 1, 1, 1, 1, 1, 1, 1, 1, 1, 1, 1, 1, 1, 1, 1, 1, 1, 1, 1, 1, 1, 1, 1, 1, 1, 1, 1, 1, 1, 1, 1, 1, 1, 1, 1, 1, 1, 1, 1, 1, 1];
Lower_Bound = [0, 1, 2, 3, 4, 5, 6, 7, 8, 1, 2, 3, 4, 5, 6, 7, 8, 13, 12, 8, 7, 6, 5, 6, 7, 8, 9, 10, 11, 9, 8, 7, 8, 7, 8, 9, 10, 11, 12, 9, 10, 9, 10, 9, 10, 11, 12, 13];
Upper_Bound = [0, 1, 2, 3, 4, 5, 6, 7, 8, 1, 2, 3, 4, 5, 6, 7, 8, 13, 12, 8, 7, 6, 5, 6, 7, 8, 9, 10, 11, 9, 8, 7, 8, 7, 8, 9, 10, 11, 12, 9, 10, 9, 10, 9, 10, 11, 12, 13];
Start = 1;
End = 48;
Time = 13;
